
Gurobi 9.1.2 (linux64, gurobi_cl) logging started Fri Jul 30 13:51:55 2021

Using license file /opt/gurobi/gurobi.lic
Set parameter TimeLimit to value 600
Set parameter MIPFocus to value 2
Set parameter LogFile to value 912-MIPFocus2-Presolve1-glass4-0.log
Set parameter Presolve to value 1

Gurobi Optimizer version 9.1.2 build v9.1.2rc0 (linux64)
Copyright (c) 2021, Gurobi Optimization, LLC

Read MPS format model from file /nfs/models/mip/glass4.mps.bz2
Reading time = 0.21 seconds
glass4: 396 rows, 322 columns, 1815 nonzeros
Thread count: 4 physical cores, 8 logical processors, using up to 8 threads
Optimize a model with 396 rows, 322 columns and 1815 nonzeros
Model fingerprint: 0x0a9d9037
Variable types: 20 continuous, 302 integer (0 binary)
Coefficient statistics:
  Matrix range     [1e+00, 8e+06]
  Objective range  [1e+00, 1e+06]
  Bounds range     [1e+00, 8e+02]
  RHS range        [1e+00, 8e+06]
Presolve removed 4 rows and 6 columns
Presolve time: 0.00s
Presolved: 392 rows, 316 columns, 1811 nonzeros
Variable types: 19 continuous, 297 integer (297 binary)
Found heuristic solution: objective 3.133356e+09

Root relaxation: objective 8.000024e+08, 72 iterations, 0.00 seconds

    Nodes    |    Current Node    |     Objective Bounds      |     Work
 Expl Unexpl |  Obj  Depth IntInf | Incumbent    BestBd   Gap | It/Node Time

     0     0 8.0000e+08    0   72 3.1334e+09 8.0000e+08  74.5%     -    0s
H    0     0                    3.100022e+09 8.0000e+08  74.2%     -    0s
H    0     0                    2.400018e+09 8.0000e+08  66.7%     -    0s
H    0     0                    2.200018e+09 8.0000e+08  63.6%     -    0s
     0     0 8.0000e+08    0   72 2.2000e+09 8.0000e+08  63.6%     -    0s
     0     0 8.0000e+08    0   72 2.2000e+09 8.0000e+08  63.6%     -    0s
H    0     0                    2.200017e+09 8.0000e+08  63.6%     -    0s
     0     2 8.0000e+08    0   72 2.2000e+09 8.0000e+08  63.6%     -    0s
H   31    40                    2.150018e+09 8.0000e+08  62.8%  11.3    0s
H  127   234                    2.100017e+09 8.0000e+08  61.9%   4.4    0s
H  235   354                    2.075016e+09 8.0000e+08  61.4%   3.4    0s
H  359   354                    2.050015e+09 8.0000e+08  61.0%   3.4    0s
H 1180  1005                    2.025016e+09 8.0000e+08  60.5%   4.9    0s
H 1180   955                    2.000015e+09 8.0000e+08  60.0%   4.9    0s
H 1182   909                    1.980015e+09 8.0000e+08  59.6%   4.9    0s
H 1183   865                    1.940015e+09 8.0000e+08  58.8%   5.9    0s
H 1214   850                    1.940015e+09 8.0001e+08  58.8%   7.2    0s
H 1220   807                    1.875015e+09 8.0001e+08  57.3%   7.2    0s
H 1267   807                    1.740015e+09 8.0001e+08  54.0%   8.2    0s
H 1302   799                    1.722237e+09 8.0001e+08  53.5%   8.7    1s
H 1522   896                    1.675015e+09 8.0001e+08  52.2%   9.7    1s
H 1523   863                    1.650014e+09 8.0001e+08  51.5%   9.8    1s
* 2303  1093              55    1.600014e+09 8.0001e+08  50.0%  15.0    2s
H 5730  3269                    1.600014e+09 8.0001e+08  50.0%  19.5    4s
  6786  3914 infeasible   51      1.6000e+09 8.0001e+08  50.0%  21.7    5s
H17366  9503                    1.550013e+09 8.4285e+08  45.6%  23.2    8s
H20622 10351                    1.500014e+09 8.6667e+08  42.2%  23.2    9s
 23645 12076 1.1500e+09   34   76 1.5000e+09 9.0000e+08  40.0%  23.4   10s
*25070 10657              94    1.433349e+09 9.0000e+08  37.2%  23.9   10s
*32355 12594              72    1.400013e+09 9.0001e+08  35.7%  26.2   13s
 37621 14309 9.8501e+08   44   61 1.4000e+09 9.0001e+08  35.7%  27.7   15s
*38017  9751              58    1.280022e+09 9.0001e+08  29.7%  27.7   15s
*38501  8185              36    1.200013e+09 9.0001e+08  25.0%  28.0   15s

Cutting planes:
  Gomory: 94
  Cover: 385
  Implied bound: 181
  Projected implied bound: 7
  MIR: 62
  Flow cover: 519
  GUB cover: 1
  Inf proof: 73
  RLT: 49
  Relax-and-lift: 162

Explored 47747 nodes (1418119 simplex iterations) in 18.47 seconds
Thread count was 8 (of 8 available processors)

Solution count 10: 1.20001e+09 1.28002e+09 1.40001e+09 ... 1.67501e+09

Optimal solution found (tolerance 1.00e-04)
Best objective 1.200012600000e+09, best bound 1.200004017351e+09, gap 0.0007%
